planks = 9;
plank_width = [3, 11, 11, 4, 2, 7, 7, 6, 8];
pillars = 27;
pillar_height = [1, 4, 1, 4, 1, 3, 4, 3, 4, 3, 3, 1, 2, 1, 3, 3, 4, 1, 2, 3, 1, 4, 4, 4, 2, 3, 1];
pillar_width = [2, 1, 2, 1, 2, 1, 2, 1, 2, 2, 2, 1, 1, 2, 2, 1, 2, 2, 2, 2, 1, 1, 2, 2, 1, 1, 1];
available_width= 20;
available_height= 24;
